
%FILE DATA:	Soccer Computational Problem for MiniZinc Models	%
%AUTHOR:	Jack Wall	%
%CONTACT:  	116397063@umail.ucc.ie			%
%LAST UPDATE:	02/24/2020, 18:51:12						%
%DESCRIPTION: 	63 games played with 9 games left				%


n=9; %number of teams

%Games to play
games=[|7,6|3,5|3,7|1,8|8,2|9,5|6,2|3,9|4,7|];

%Initial points
iPoints=[23,15,14,23,15,20,17,24,15];

%POSITION CONSTRAINTS
% [|teamID, operator, position|...]
% operators index:
%  1 for =  operator
%  2 for >  operator
%  3 for >= operator
%  4 for <  operator
%  5 for <= operator
positionConstraints=[|8,4,2|4,3,2|1,5,3|];